2025-07-08 15:48:13,824 - INFO - Working directory: E:\hands_on_opt\Tsp_Tirupathi_2
2025-07-08 15:48:14,106 - INFO - Gurobi solving n=10 (limit=600s)...
2025-07-08 15:48:14,767 - INFO - Set parameter Username
2025-07-08 15:48:14,800 - INFO - Set parameter LicenseID to value 2609931
2025-07-08 15:48:14,805 - INFO - Academic license - for non-commercial use only - expires 2026-01-14
2025-07-08 15:48:15,233 - INFO - Read LP format model from file C:\Users\HP\AppData\Local\Temp\tmpr1xq7ee9.pyomo.lp
2025-07-08 15:48:15,352 - INFO - Reading time = 0.24 seconds
2025-07-08 15:48:15,490 - INFO - x1: 92 rows, 99 columns, 396 nonzeros
2025-07-08 15:48:15,552 - INFO - Set parameter TimeLimit to value 600
2025-07-08 15:48:15,562 - INFO - Set parameter MIPGap to value 0.0001
2025-07-08 15:48:15,565 - INFO - Gurobi Optimizer version 12.0.1 build v12.0.1rc0 (win64 - Windows 11.0 (22631.2))
2025-07-08 15:48:15,565 - INFO - 
2025-07-08 15:48:15,565 - INFO - CPU model: AMD Ryzen 5 3550H with Radeon Vega Mobile Gfx, instruction set [SSE2|AVX|AVX2]
2025-07-08 15:48:15,566 - INFO - Thread count: 4 physical cores, 8 logical processors, using up to 8 threads
2025-07-08 15:48:15,566 - INFO - 
2025-07-08 15:48:15,566 - INFO - Non-default parameters:
2025-07-08 15:48:15,566 - INFO - TimeLimit  600
2025-07-08 15:48:15,567 - INFO - 
2025-07-08 15:48:15,567 - INFO - Optimize a model with 92 rows, 99 columns and 396 nonzeros
2025-07-08 15:48:15,567 - INFO - Model fingerprint: 0x325f8249
2025-07-08 15:48:15,568 - INFO - Variable types: 9 continuous, 90 integer (90 binary)
2025-07-08 15:48:15,568 - INFO - Coefficient statistics:
2025-07-08 15:48:15,568 - INFO -   Matrix range     [1e+00, 1e+01]
2025-07-08 15:48:15,568 - INFO -   Objective range  [8e+01, 2e+03]
2025-07-08 15:48:15,569 - INFO -   Bounds range     [1e+00, 9e+00]
2025-07-08 15:48:15,569 - INFO -   RHS range        [1e+00, 9e+00]
2025-07-08 15:48:15,574 - INFO - Presolve time: 0.00s
2025-07-08 15:48:15,574 - INFO - Presolved: 92 rows, 99 columns, 795 nonzeros
2025-07-08 15:48:15,576 - INFO - Variable types: 9 continuous, 90 integer (90 binary)
2025-07-08 15:48:15,578 - INFO - Found heuristic solution: objective 9364.8801635
2025-07-08 15:48:15,589 - INFO - 
2025-07-08 15:48:15,589 - INFO - Root relaxation: objective 2.702046e+03, 27 iterations, 0.00 seconds (0.00 work units)
2025-07-08 15:48:15,675 - INFO - 
2025-07-08 15:48:15,802 - INFO -     Nodes    |    Current Node    |     Objective Bounds      |     Work
2025-07-08 15:48:15,938 - INFO -  Expl Unexpl |  Obj  Depth IntInf | Incumbent    BestBd   Gap | It/Node Time
2025-07-08 15:48:15,999 - INFO - 
2025-07-08 15:48:16,169 - INFO -      0     0 2702.04612    0   14 9364.88016 2702.04612  71.1%     -    0s
2025-07-08 15:48:16,321 - INFO - H    0     0                    7606.8177707 2702.04612  64.5%     -    0s
2025-07-08 15:48:16,474 - INFO - H    0     0                    7584.5875311 3516.18005  53.6%     -    0s
2025-07-08 15:48:16,509 - INFO -      0     0 3516.18005    0   14 7584.58753 3516.18005  53.6%     -    0s
2025-07-08 15:48:16,662 - INFO - H    0     0                    7073.6407268 3516.18005  50.3%     -    1s
2025-07-08 15:48:16,760 - INFO -      0     0 3608.87425    0   14 7073.64073 3608.87425  49.0%     -    1s
2025-07-08 15:48:16,908 - INFO -      0     0 3702.76015    0   16 7073.64073 3702.76015  47.7%     -    1s
2025-07-08 15:48:17,089 - INFO - H    0     0                    6908.0000264 3702.76015  46.4%     -    1s
2025-07-08 15:48:17,228 - INFO - H    0     0                    6832.2550975 3702.76015  45.8%     -    1s
2025-07-08 15:48:17,317 - INFO - H    0     0                    6450.2935184 3751.42521  41.8%     -    1s
2025-07-08 15:48:17,404 - INFO -      0     0 3751.42521    0   18 6450.29352 3751.42521  41.8%     -    1s
2025-07-08 15:48:17,464 - INFO -      0     0 3756.61376    0   18 6450.29352 3756.61376  41.8%     -    1s
2025-07-08 15:48:17,504 - INFO -      0     0 3967.99023    0   11 6450.29352 3967.99023  38.5%     -    1s
2025-07-08 15:48:17,627 - INFO -      0     0 3967.99023    0   11 6450.29352 3967.99023  38.5%     -    2s
2025-07-08 15:48:17,748 - INFO -      0     0 3985.32010    0   10 6450.29352 3985.32010  38.2%     -    2s
2025-07-08 15:48:17,829 - INFO - H    0     0                    6399.0782567 3985.32010  37.7%     -    2s
2025-07-08 15:48:17,891 - INFO -      0     0 3985.32010    0   10 6399.07826 3985.32010  37.7%     -    2s
2025-07-08 15:48:17,982 - INFO -      0     0 4026.70019    0   14 6399.07826 4026.70019  37.1%     -    2s
2025-07-08 15:48:18,061 - INFO -      0     0 4026.70019    0   14 6399.07826 4026.70019  37.1%     -    2s
2025-07-08 15:48:18,210 - INFO -      0     2 4042.53124    0   14 6399.07826 4042.53124  36.8%     -    2s
2025-07-08 15:48:18,692 - INFO - H  101    72                    6350.6561441 4126.91597  35.0%   5.0    3s
2025-07-08 15:48:18,988 - INFO - *  168   113              12    6324.5245693 4192.82469  33.7%   4.9    3s
2025-07-08 15:48:19,927 - INFO - *  668   164              11    6177.4967771 4518.15096  26.9%   4.6    4s
2025-07-08 15:48:20,641 - INFO - 
2025-07-08 15:48:20,738 - INFO - Cutting planes:
2025-07-08 15:48:20,876 - INFO -   Learned: 3
2025-07-08 15:48:20,971 - INFO -   Gomory: 2
2025-07-08 15:48:21,006 - INFO -   Implied bound: 15
2025-07-08 15:48:21,102 - INFO -   Clique: 2
2025-07-08 15:48:21,148 - INFO -   MIR: 19
2025-07-08 15:48:21,189 - INFO -   Inf proof: 1
2025-07-08 15:48:21,198 - INFO -   RLT: 2
2025-07-08 15:48:21,199 - INFO -   Relax-and-lift: 5
2025-07-08 15:48:21,200 - INFO - 
2025-07-08 15:48:21,200 - INFO - Explored 1285 nodes (5470 simplex iterations) in 5.64 seconds (0.10 work units)
2025-07-08 15:48:21,201 - INFO - Thread count was 8 (of 8 available processors)
2025-07-08 15:48:21,223 - INFO - 
2025-07-08 15:48:21,236 - INFO - Solution count 10: 6177.5 6324.52 6350.66 ... 7606.82
2025-07-08 15:48:21,239 - INFO - 
2025-07-08 15:48:21,256 - INFO - Optimal solution found (tolerance 1.00e-04)
2025-07-08 15:48:21,257 - INFO - Best objective 6.177496777117e+03, best bound 6.177496777117e+03, gap 0.0000%
2025-07-08 15:48:24,249 - INFO - Plot saved e:\hands_on_opt\Tsp_Tirupathi_2\output_files\plots\tour_gurobi_10.png
2025-07-08 15:48:24,348 - INFO - Gurobi solving n=20 (limit=600s)...
2025-07-08 15:48:24,880 - INFO - Read LP format model from file C:\Users\HP\AppData\Local\Temp\tmpph_yw1vd.pyomo.lp
2025-07-08 15:48:24,896 - INFO - Reading time = 0.14 seconds
2025-07-08 15:48:24,963 - INFO - x1: 382 rows, 399 columns, 1786 nonzeros
2025-07-08 15:48:25,006 - INFO - Set parameter TimeLimit to value 600
2025-07-08 15:48:25,019 - INFO - Set parameter MIPGap to value 0.0001
2025-07-08 15:48:25,044 - INFO - Gurobi Optimizer version 12.0.1 build v12.0.1rc0 (win64 - Windows 11.0 (22631.2))
2025-07-08 15:48:25,058 - INFO - 
2025-07-08 15:48:25,059 - INFO - CPU model: AMD Ryzen 5 3550H with Radeon Vega Mobile Gfx, instruction set [SSE2|AVX|AVX2]
2025-07-08 15:48:25,060 - INFO - Thread count: 4 physical cores, 8 logical processors, using up to 8 threads
2025-07-08 15:48:25,138 - INFO - 
2025-07-08 15:48:25,161 - INFO - Non-default parameters:
2025-07-08 15:48:25,162 - INFO - TimeLimit  600
2025-07-08 15:48:25,163 - INFO - 
2025-07-08 15:48:25,164 - INFO - Optimize a model with 382 rows, 399 columns and 1786 nonzeros
2025-07-08 15:48:25,165 - INFO - Model fingerprint: 0x465fa032
2025-07-08 15:48:25,165 - INFO - Variable types: 19 continuous, 380 integer (380 binary)
2025-07-08 15:48:25,167 - INFO - Coefficient statistics:
2025-07-08 15:48:25,170 - INFO -   Matrix range     [1e+00, 2e+01]
2025-07-08 15:48:25,170 - INFO -   Objective range  [5e+01, 2e+03]
2025-07-08 15:48:25,171 - INFO -   Bounds range     [1e+00, 2e+01]
2025-07-08 15:48:25,171 - INFO -   RHS range        [1e+00, 2e+01]
2025-07-08 15:48:25,185 - INFO - Presolve time: 0.02s
2025-07-08 15:48:25,186 - INFO - Presolved: 382 rows, 399 columns, 1786 nonzeros
2025-07-08 15:48:25,189 - INFO - Variable types: 19 continuous, 380 integer (380 binary)
2025-07-08 15:48:25,194 - INFO - Found heuristic solution: objective 21692.597093
2025-07-08 15:48:25,266 - INFO - Found heuristic solution: objective 21673.113931
2025-07-08 15:48:25,353 - INFO - 
2025-07-08 15:48:25,399 - INFO - Root relaxation: objective 5.647328e+03, 64 iterations, 0.00 seconds (0.00 work units)
2025-07-08 15:48:25,617 - INFO - 
2025-07-08 15:48:25,687 - INFO -     Nodes    |    Current Node    |     Objective Bounds      |     Work
2025-07-08 15:48:25,773 - INFO -  Expl Unexpl |  Obj  Depth IntInf | Incumbent    BestBd   Gap | It/Node Time
2025-07-08 15:48:25,875 - INFO - 
2025-07-08 15:48:25,970 - INFO -      0     0 5647.32842    0   28 21673.1139 5647.32842  73.9%     -    0s
2025-07-08 15:48:26,088 - INFO - H    0     0                    17310.407751 5647.32842  67.4%     -    0s
2025-07-08 15:48:26,196 - INFO -      0     0 6948.29364    0   32 17310.4078 6948.29364  59.9%     -    1s
2025-07-08 15:48:26,597 - INFO - H    0     0                    13574.100778 6975.64821  48.6%     -    1s
2025-07-08 15:48:26,705 - INFO -      0     0 6975.64821    0   32 13574.1008 6975.64821  48.6%     -    1s
2025-07-08 15:48:26,841 - INFO - H    0     0                    12422.614872 6975.64821  43.8%     -    1s
2025-07-08 15:48:26,962 - INFO - H    0     0                    10986.529218 6975.64821  36.5%     -    1s
2025-07-08 15:48:27,033 - INFO -      0     0 6975.64821    0   34 10986.5292 6975.64821  36.5%     -    1s
2025-07-08 15:48:27,062 - INFO - H    0     0                    9771.7531793 6975.64821  28.6%     -    1s
2025-07-08 15:48:27,066 - INFO - H    0     0                    9122.6196239 6975.64821  23.5%     -    1s
2025-07-08 15:48:27,105 - INFO -      0     0 6975.64821    0   34 9122.61962 6975.64821  23.5%     -    1s
2025-07-08 15:48:27,170 - INFO - H    0     0                    8196.6099296 6975.64821  14.9%     -    2s
2025-07-08 15:48:27,258 - INFO -      0     0 6975.64821    0   34 8196.60993 6975.64821  14.9%     -    2s
2025-07-08 15:48:27,409 - INFO -      0     0 6975.64821    0   34 8196.60993 6975.64821  14.9%     -    2s
2025-07-08 15:48:27,538 - INFO -      0     0 6975.64821    0   34 8196.60993 6975.64821  14.9%     -    2s
2025-07-08 15:48:27,737 - INFO -      0     0 6975.64821    0   34 8196.60993 6975.64821  14.9%     -    2s
2025-07-08 15:48:28,108 - INFO -      0     0 6975.64821    0   29 8196.60993 6975.64821  14.9%     -    2s
2025-07-08 15:48:28,157 - INFO - H    0     0                    8103.2573620 6975.64821  13.9%     -    2s
2025-07-08 15:48:28,190 - INFO -      0     0 6975.64821    0   34 8103.25736 6975.64821  13.9%     -    3s
2025-07-08 15:48:28,213 - INFO -      0     0 6975.64821    0   34 8103.25736 6975.64821  13.9%     -    3s
2025-07-08 15:48:28,236 - INFO -      0     0 6975.64821    0   34 8103.25736 6975.64821  13.9%     -    3s
2025-07-08 15:48:28,288 - INFO -      0     0 6975.64821    0   34 8103.25736 6975.64821  13.9%     -    3s
2025-07-08 15:48:28,314 - INFO -      0     0 6975.64821    0   34 8103.25736 6975.64821  13.9%     -    3s
2025-07-08 15:48:28,412 - INFO -      0     0 6975.64821    0   34 8103.25736 6975.64821  13.9%     -    3s
2025-07-08 15:48:28,464 - INFO - H    0     0                    7962.0790193 6975.64821  12.4%     -    3s
2025-07-08 15:48:28,564 - INFO -      0     2 6975.64821    0   34 7962.07902 6975.64821  12.4%     -    3s
2025-07-08 15:48:30,187 - INFO -    536   513 7272.66073   25   10 7962.07902 7015.44984  11.9%   5.2    5s
2025-07-08 15:48:35,673 - INFO -   1372   993 7268.44905   24   36 7962.07902 7044.51828  11.5%   5.5   10s
2025-07-08 15:48:40,229 - INFO -   3099  1609 7177.97874   22   23 7962.07902 7069.63566  11.2%   6.6   15s
2025-07-08 15:48:45,303 - INFO -  11083  4924 7640.74635   26   11 7962.07902 7270.13079  8.69%   6.6   20s
2025-07-08 15:48:50,281 - INFO -  18563  7435 7671.30741   23   15 7962.07902 7342.45511  7.78%   6.9   25s
2025-07-08 15:48:55,186 - INFO -  27643  9125 7724.64751   25   13 7962.07902 7410.57540  6.93%   7.2   30s
2025-07-08 15:49:03,754 - INFO -  29346  9346 7527.41813   20   34 7962.07902 7422.53822  6.78%   7.2   38s
2025-07-08 15:49:05,219 - INFO -  29359  9355 7553.98578   26   38 7962.07902 7422.53822  6.78%   7.2   40s
2025-07-08 15:49:10,387 - INFO -  29376  9369 7422.53822   20   36 7962.07902 7422.53822  6.78%   7.2   45s
2025-07-08 15:49:15,281 - INFO -  32443  9808 7422.53822   28   12 7962.07902 7422.53822  6.78%   7.3   50s
2025-07-08 15:49:20,188 - INFO -  39090 10693 7840.72770   40   14 7962.07902 7422.53822  6.78%   7.3   55s
2025-07-08 15:49:25,300 - INFO -  48410 10319 7642.69307   35    9 7962.07902 7422.53822  6.78%   7.2   60s
